MARKOV
988
 2 2 2 2 2 2 2 2 2 2 2 2 2 2 2 2 2 2 2 2 2 2 2 2 2 2 2 2 2 2 2 2 2 2 2 2 2 2 2 2 2 2 2 2 2 2 2 2 2 2 2 2 2 2 2 2 2 2 2 2 2 2 2 2 2 2 2 2 2 2 2 2 2 2 2 2 2 2 2 2 2 2 2 2 2 2 2 2 2 2 2 2 2 2 2 2 2 2 2 2 2 2 2 2 2 2 2 2 2 2 2 2 2 2 2 2 2 2 2 2 2 2 2 2 2 2 2 2 2 2 2 2 2 2 2 2 2 2 2 2 2 2 2 2 2 2 2 2 2 2 2 2 2 2 2 2 2 2 2 2 2 2 2 2 2 2 2 2 2 2 2 2 2 2 2 2 2 2 2 2 2 2 2 2 2 2 2 2 2 2 2 2 2 2 2 2 2 2 2 2 2 2 2 2 2 2 2 2 2 2 2 2 2 2 2 2 2 2 2 2 2 2 2 2 2 2 2 2 2 2 2 2 2 2 2 2 2 2 2 2 2 2 2 2 2 2 2 2 2 2 2 2 2 2 2 2 2 2 2 2 2 2 2 2 2 2 2 2 2 2 2 2 2 2 2 2 2 2 2 2 2 2 2 2 2 2 2 2 2 2 2 2 2 2 2 2 2 2 2 2 2 2 2 2 2 2 2 2 2 2 2 2 2 2 2 2 2 2 2 2 2 2 2 2 2 2 2 2 2 2 2 2 2 2 2 2 2 2 2 2 2 2 2 2 2 2 2 2 2 2 2 2 2 2 2 2 2 2 2 2 2 2 2 2 2 2 2 2 2 2 2 2 2 2 2 2 2 2 2 2 2 2 2 2 2 2 2 2 2 2 2 2 2 2 2 2 2 2 2 2 2 2 2 2 2 2 2 2 2 2 2 2 2 2 2 2 2 2 2 2 2 2 2 2 2 2 2 2 2 2 2 2 2 2 2 2 2 2 2 2 2 2 2 2 2 2 2 2 2 2 2 2 2 2 2 2 2 2 2 2 2 2 2 2 2 2 2 2 2 2 2 2 2 2 2 2 2 2 2 2 2 2 2 2 2 2 2 2 2 2 2 2 2 2 2 2 2 2 2 2 2 2 2 2 2 2 2 2 2 2 2 2 2 2 2 2 2 2 2 2 2 2 2 2 2 2 2 2 2 2 2 2 2 2 2 2 2 2 2 2 2 2 2 2 2 2 2 2 2 2 2 2 2 2 2 2 2 2 2 2 2 2 2 2 2 2 2 2 2 2 2 2 2 2 2 2 2 2 2 2 2 2 2 2 2 2 2 2 2 2 2 2 2 2 2 2 2 2 2 2 2 2 2 2 2 2 2 2 2 2 2 2 2 2 2 2 2 2 2 2 2 2 2 2 2 2 2 2 2 2 2 2 2 2 2 2 2 2 2 2 2 2 2 2 2 2 2 2 2 2 2 2 2 2 2 2 2 2 2 2 2 2 2 2 2 2 2 2 2 2 2 2 2 2 2 2 2 2 2 2 2 2 2 2 2 2 2 2 2 2 2 2 2 2 2 2 2 2 2 2 2 2 2 2 2 2 2 2 2 2 2 2 2 2 2 2 2 2 2 2 2 2 2 2 2 2 2 2 2 2 2 2 2 2 2 2 2 2 2 2 2 2 2 2 2 2 2 2 2 2 2 2 2 2 2 2 2 2 2 2 2 2 2 2 2 2 2 2 2 2 2 2 2 2 2 2 2 2 2 2 2 2 2 2 2 2 2 2 2 2 2 2 2 2 2 2 2 2 2 2 2 2 2 2 2 2 2 2 2 2 2 2 2 2 2 2 2 2 2 2 2 2 2 2 2 2 2 2 2 2 2 2 2 2 2 2 2 2 2 2 2 2 2 2 2 2 2 2 2 2 2 2 2 2 2 2 2 2 2 2 2 2 2 2 2 2 2 2 2 2 2 2 2 2 2 2 2 2 2 2 2 2 2 2 2 2 2 2 2 2 2 2 2 2 2 2 2 2 2 2 2 2 2 2 2 2 2 2 2 2 2 2 2 2 2 2 2 2 2 2 2 2 2 2 2 2 2 2 2 2 2 2 2 2 2 2 2 2 2 2 2 2 2 2 2 2 2 2 2 2 2 2 2 2 2 2 2 2 2 2 2 2 2 2 2 2 2 2 2 2 2 2 2 2 2 2 2 2 2 2 2 2 2 2 2 2 2 2
999
3	29 96 987 
3	119 986 987 
3	104 985 986 
3	45 984 985 
3	327 983 984 
1	983 
3	180 286 982 
3	145 981 982 
3	0 980 981 
3	297 979 980 
3	249 978 979 
3	343 977 978 
3	68 976 977 
3	178 975 976 
3	259 974 975 
3	64 973 974 
3	371 972 973 
3	13 971 972 
3	334 970 971 
3	348 969 970 
3	12 968 969 
3	352 967 968 
3	123 966 967 
3	285 965 966 
3	237 964 965 
3	107 963 964 
3	18 962 963 
3	323 961 962 
3	282 960 961 
3	341 959 960 
3	25 958 959 
3	313 957 958 
3	267 956 957 
3	350 955 956 
3	205 954 955 
3	110 953 954 
3	228 952 953 
3	360 951 952 
3	317 950 951 
3	160 949 950 
3	310 948 949 
3	133 947 948 
3	17 946 947 
3	214 945 946 
3	253 944 945 
3	204 943 944 
3	222 942 943 
3	330 941 942 
3	336 940 941 
3	142 939 940 
3	203 938 939 
3	296 937 938 
3	266 936 937 
3	322 935 936 
3	219 934 935 
3	143 933 934 
3	146 932 933 
3	35 931 932 
3	42 930 931 
3	135 929 930 
3	147 928 929 
3	342 927 928 
3	217 926 927 
3	263 925 926 
3	227 924 925 
3	170 923 924 
3	246 922 923 
3	87 921 922 
3	361 920 921 
3	11 919 920 
3	324 918 919 
3	235 917 918 
3	261 916 917 
3	206 915 916 
3	223 914 915 
3	262 913 914 
3	367 912 913 
3	130 911 912 
3	200 910 911 
3	92 909 910 
3	298 908 909 
3	289 907 908 
3	20 906 907 
3	15 905 906 
3	76 904 905 
3	168 903 904 
3	320 902 903 
3	165 901 902 
3	232 900 901 
3	231 899 900 
3	243 898 899 
3	85 897 898 
3	209 896 897 
1	896 
3	145 180 895 
3	297 894 895 
3	0 893 894 
3	249 892 893 
3	219 891 892 
3	68 890 891 
3	259 889 890 
3	164 888 889 
3	147 887 888 
3	135 886 887 
3	13 885 886 
3	342 884 885 
3	264 883 884 
3	45 882 883 
3	217 881 882 
3	186 880 881 
3	327 879 880 
3	348 878 879 
3	263 877 878 
3	227 876 877 
3	352 875 876 
3	12 874 875 
3	103 873 874 
3	123 872 873 
3	246 871 872 
3	87 870 871 
3	235 869 870 
3	323 868 869 
3	262 867 868 
3	341 866 867 
3	25 865 866 
3	313 864 865 
3	267 863 864 
3	340 862 863 
3	205 861 862 
3	200 860 861 
3	317 859 860 
3	133 858 859 
3	298 857 858 
3	289 856 857 
3	20 855 856 
3	15 854 855 
3	9 853 854 
3	76 852 853 
3	119 851 852 
3	207 850 851 
3	222 849 850 
3	168 848 849 
3	330 847 848 
3	165 846 847 
3	231 845 846 
3	243 844 845 
3	302 843 844 
3	209 842 843 
1	842 
3	280 352 841 
3	93 840 841 
1	840 
3	286 297 839 
3	95 838 839 
3	332 837 838 
3	164 836 837 
3	64 835 836 
3	71 834 835 
3	122 833 834 
3	348 832 833 
3	251 831 832 
3	211 830 831 
3	151 829 830 
3	185 828 829 
3	172 827 828 
3	41 826 827 
3	287 825 826 
3	323 824 825 
3	341 823 824 
3	313 822 823 
3	267 821 822 
3	205 820 821 
3	340 819 820 
3	110 818 819 
3	337 817 818 
3	317 816 817 
3	129 815 816 
3	160 814 815 
3	134 813 814 
3	119 812 813 
3	80 811 812 
3	23 810 811 
3	142 809 810 
3	203 808 809 
3	318 807 808 
3	143 806 807 
3	331 805 806 
3	271 804 805 
3	59 803 804 
3	101 802 803 
3	146 801 802 
3	362 800 801 
3	117 799 800 
3	105 798 799 
3	147 797 798 
3	72 796 797 
3	342 795 796 
3	186 794 795 
3	212 793 794 
3	338 792 793 
3	113 791 792 
3	227 790 791 
3	103 789 790 
3	19 788 789 
3	187 787 788 
3	87 786 787 
3	351 785 786 
3	312 784 785 
3	304 783 784 
3	261 782 783 
3	34 781 782 
3	83 780 781 
3	8 779 780 
3	262 778 779 
3	82 777 778 
3	201 776 777 
3	98 775 776 
3	269 774 775 
3	31 773 774 
3	130 772 773 
3	167 771 772 
3	339 770 771 
3	289 769 770 
3	118 768 769 
3	15 767 768 
3	233 766 767 
3	90 765 766 
3	230 764 765 
3	168 763 764 
3	165 762 763 
3	345 761 762 
3	137 760 761 
3	302 759 760 
3	256 758 759 
3	180 757 758 
3	184 756 757 
3	145 755 756 
3	81 754 755 
3	0 753 754 
3	249 752 753 
3	343 751 752 
3	68 750 751 
3	58 749 750 
3	259 748 749 
3	13 747 748 
3	300 746 747 
3	353 745 746 
3	45 744 745 
3	327 743 744 
3	12 742 743 
3	352 741 742 
3	123 740 741 
3	285 739 740 
3	174 738 739 
3	329 737 738 
3	279 736 737 
3	335 735 736 
3	25 734 735 
3	97 733 734 
3	166 732 733 
3	274 731 732 
3	360 730 731 
3	241 729 730 
3	48 728 729 
3	181 727 728 
3	310 726 727 
3	133 725 726 
3	214 724 725 
3	278 723 724 
3	253 722 723 
3	207 721 722 
3	204 720 721 
3	222 719 720 
3	177 718 719 
3	111 717 718 
3	276 716 717 
3	330 715 716 
3	296 714 715 
3	163 713 714 
3	314 712 713 
3	322 711 712 
3	183 710 711 
3	219 709 710 
3	369 708 709 
3	292 707 708 
3	5 706 707 
3	35 705 706 
3	47 704 705 
3	42 703 704 
3	135 702 703 
3	264 701 702 
3	217 700 701 
3	263 699 700 
3	26 698 699 
3	246 697 698 
3	361 696 697 
3	305 695 696 
3	235 694 695 
3	206 693 694 
3	367 692 693 
3	200 691 692 
3	115 690 691 
3	74 689 690 
3	69 688 689 
3	298 687 688 
3	22 686 687 
3	20 685 686 
3	9 684 685 
3	76 683 684 
3	37 682 683 
3	231 681 682 
3	243 680 681 
3	85 679 680 
3	209 678 679 
1	678 
3	145 286 677 
3	106 676 677 
3	193 675 676 
3	109 674 675 
3	157 673 674 
3	343 672 673 
3	68 671 672 
3	161 670 671 
3	79 669 670 
3	150 668 669 
3	265 667 668 
3	259 666 667 
3	114 665 666 
3	64 664 665 
3	195 663 664 
3	13 662 663 
3	99 661 662 
3	242 660 661 
3	270 659 660 
3	216 658 659 
3	283 657 658 
3	182 656 657 
3	32 655 656 
3	284 654 655 
3	356 653 654 
3	116 652 653 
3	158 651 652 
3	7 650 651 
3	112 649 650 
3	211 648 649 
3	12 647 648 
3	363 646 647 
3	328 645 646 
3	344 644 645 
3	89 643 644 
3	285 642 643 
3	156 641 642 
3	65 640 641 
3	44 639 640 
3	215 638 639 
3	66 637 638 
3	148 636 637 
3	210 635 636 
3	179 634 635 
3	4 633 634 
3	78 632 633 
3	358 631 632 
3	110 630 631 
3	152 629 630 
3	228 628 629 
3	121 627 628 
3	274 626 627 
3	290 625 626 
3	94 624 625 
3	48 623 624 
3	310 622 623 
3	199 621 622 
3	52 620 621 
3	169 619 620 
3	253 618 619 
3	293 617 618 
3	194 616 617 
3	77 615 616 
3	131 614 615 
3	176 613 614 
3	39 612 613 
3	33 611 612 
3	86 610 611 
3	301 609 610 
3	225 608 609 
3	100 607 608 
3	53 606 607 
3	325 605 606 
3	368 604 605 
3	296 603 604 
3	102 602 603 
3	189 601 602 
3	163 600 601 
3	154 599 600 
3	314 598 599 
3	303 597 598 
3	219 596 597 
3	143 595 596 
3	127 594 595 
3	315 593 594 
3	248 592 593 
3	271 591 592 
3	146 590 591 
3	35 589 590 
3	326 588 589 
3	55 587 588 
3	42 586 587 
3	202 585 586 
3	309 584 585 
3	217 583 584 
3	234 582 583 
3	277 581 582 
3	333 580 581 
3	113 579 580 
3	125 578 579 
3	141 577 578 
3	258 576 577 
3	196 575 576 
3	63 574 575 
3	307 573 574 
3	281 572 573 
3	361 571 572 
3	21 570 571 
3	351 569 570 
3	62 568 569 
3	365 567 568 
3	316 566 567 
3	324 565 566 
3	240 564 565 
3	190 563 564 
3	206 562 563 
3	261 561 562 
3	34 560 561 
3	197 559 560 
3	208 558 559 
3	213 557 558 
3	153 556 557 
3	2 555 556 
3	321 554 555 
3	30 553 554 
3	173 552 553 
3	269 551 552 
3	75 550 551 
3	254 549 550 
3	16 548 549 
3	136 547 548 
3	175 546 547 
3	167 545 546 
3	354 544 545 
3	239 543 544 
3	366 542 543 
3	27 541 542 
3	57 540 541 
3	245 539 540 
3	289 538 539 
3	233 537 538 
3	226 536 537 
3	192 535 536 
3	36 534 535 
3	38 533 534 
3	359 532 533 
3	128 531 532 
3	372 530 531 
3	149 529 530 
3	302 528 529 
3	85 527 528 
3	347 526 527 
3	349 525 526 
1	525 
3	14 288 524 
3	120 523 524 
3	268 522 523 
3	46 521 522 
3	139 520 521 
3	132 519 520 
3	256 518 519 
1	518 
3	81 145 517 
3	303 516 517 
3	191 515 516 
3	143 514 515 
3	146 513 514 
3	35 512 513 
3	273 511 512 
3	164 510 511 
3	84 509 510 
3	300 508 509 
3	72 507 508 
3	186 506 507 
3	212 505 506 
3	308 504 505 
3	229 503 504 
3	49 502 503 
3	67 501 502 
3	116 500 501 
3	158 499 500 
3	141 498 499 
3	73 497 498 
3	144 496 497 
3	151 495 496 
3	19 494 495 
3	361 493 494 
3	61 492 493 
3	285 491 492 
3	370 490 491 
3	304 489 490 
3	108 488 489 
3	107 487 488 
3	18 486 487 
3	223 485 486 
3	34 484 485 
3	329 483 484 
3	24 482 483 
3	82 481 482 
3	335 480 481 
3	88 479 480 
3	162 478 479 
3	126 477 478 
3	3 476 477 
3	272 475 476 
3	346 474 475 
3	238 473 474 
3	56 472 473 
3	337 471 472 
3	43 470 471 
3	60 469 470 
3	91 468 469 
3	17 467 468 
3	244 466 467 
3	255 465 466 
3	278 464 465 
3	236 463 464 
3	6 462 463 
3	134 461 462 
3	1 460 461 
3	194 459 460 
3	90 458 459 
3	131 457 458 
3	257 456 457 
3	70 455 456 
3	275 454 455 
3	51 453 454 
3	357 452 453 
3	232 451 452 
3	142 450 451 
3	252 449 450 
3	364 448 449 
3	302 447 448 
1	447 
3	50 295 446 
3	157 445 446 
3	173 444 445 
3	68 443 444 
3	269 442 443 
3	161 441 442 
3	260 440 441 
3	299 439 440 
3	228 438 439 
3	16 437 438 
3	150 436 437 
3	355 435 436 
3	159 434 435 
3	188 433 434 
3	13 432 433 
3	283 431 432 
3	118 430 431 
3	217 429 430 
3	52 428 429 
3	194 427 428 
3	319 426 427 
3	12 425 426 
3	171 424 425 
3	63 423 424 
3	221 422 423 
3	36 421 422 
3	225 420 421 
3	62 419 420 
3	311 418 419 
3	148 417 418 
3	261 416 417 
3	149 415 416 
3	220 414 415 
3	247 413 414 
1	413 
3	145 291 412 
3	40 411 412 
3	10 410 411 
3	191 409 410 
3	124 408 409 
3	369 407 408 
3	143 406 407 
3	104 405 406 
3	5 404 405 
3	3 403 404 
3	146 402 403 
3	164 401 402 
3	218 400 401 
3	43 399 400 
3	13 398 399 
3	118 397 398 
3	186 396 397 
3	244 395 396 
3	255 394 395 
3	67 393 394 
3	113 392 393 
3	28 391 392 
3	54 390 391 
3	158 389 390 
3	294 388 389 
3	306 387 388 
3	144 386 387 
3	155 385 386 
3	361 384 385 
3	198 383 384 
3	285 382 383 
3	304 381 382 
3	357 380 381 
3	250 379 380 
3	142 378 379 
3	140 377 378 
3	368 376 377 
3	138 375 376 
3	224 374 375 
3	335 373 374 
1	373 
1	106 
1	191 
1	161 
1	95 
1	79 
1	332 
1	64 
1	195 
1	84 
1	270 
1	334 
1	308 
1	356 
1	122 
1	112 
1	221 
1	328 
1	144 
1	89 
1	172 
1	66 
1	287 
1	78 
1	282 
1	341 
1	10 
1	205 
1	260 
1	290 
1	94 
1	244 
1	199 
1	169 
1	194 
1	119 
1	225 
1	23 
1	357 
1	336 
1	142 
1	364 
1	203 
1	368 
1	143 
1	271 
1	101 
1	147 
1	309 
1	342 
1	277 
1	186 
1	212 
1	338 
1	54 
1	141 
1	227 
1	103 
1	19 
1	307 
1	21 
1	87 
1	62 
1	365 
1	240 
1	11 
1	34 
1	223 
1	83 
1	262 
1	40 
1	162 
1	130 
1	346 
1	188 
1	167 
1	289 
1	6 
1	90 
1	192 
1	268 
1	230 
1	51 
1	128 
1	372 
1	180 
1	81 
1	249 
1	109 
1	157 
1	343 
1	68 
1	104 
1	178 
1	58 
1	46 
1	371 
1	13 
1	242 
1	32 
1	45 
1	67 
1	327 
1	116 
1	28 
1	294 
1	352 
1	344 
1	93 
1	65 
1	237 
1	44 
1	215 
1	250 
1	18 
1	179 
1	174 
1	329 
1	228 
1	166 
1	274 
1	121 
1	360 
1	159 
1	241 
1	48 
1	133 
1	278 
1	255 
1	253 
1	131 
1	70 
1	222 
1	275 
1	100 
1	296 
1	102 
1	189 
1	163 
1	154 
1	322 
1	314 
1	183 
1	219 
1	292 
1	127 
1	248 
1	5 
1	35 
1	47 
1	42 
1	135 
1	125 
1	258 
1	73 
1	26 
1	170 
1	63 
1	155 
1	281 
1	246 
1	361 
1	311 
1	235 
1	153 
1	24 
1	2 
1	30 
1	173 
1	126 
1	115 
1	16 
1	3 
1	92 
1	74 
1	175 
1	91 
1	69 
1	354 
1	239 
1	27 
1	298 
1	245 
1	22 
1	9 
1	76 
1	226 
1	139 
1	320 
1	37 
1	252 
1	138 
1	85 
1	209 
1	286 
1	297 
1	193 
1	299 
1	265 
1	273 
1	164 
1	71 
1	283 
1	216 
1	182 
1	229 
1	348 
1	7 
1	251 
1	211 
1	319 
1	151 
1	185 
1	132 
1	148 
1	41 
1	210 
1	323 
1	14 
1	29 
1	313 
1	267 
1	340 
1	110 
1	152 
1	56 
1	337 
1	317 
1	129 
1	160 
1	17 
1	134 
1	77 
1	257 
1	33 
1	301 
1	80 
1	53 
1	325 
1	318 
1	266 
1	291 
1	295 
1	288 
1	120 
1	315 
1	331 
1	59 
1	146 
1	355 
1	362 
1	117 
1	55 
1	105 
1	72 
1	280 
1	234 
1	333 
1	113 
1	196 
1	187 
1	351 
1	312 
1	316 
1	304 
1	108 
1	324 
1	261 
1	8 
1	82 
1	321 
1	50 
1	96 
1	201 
1	88 
1	98 
1	269 
1	31 
1	75 
1	254 
1	218 
1	60 
1	339 
1	57 
1	118 
1	236 
1	15 
1	233 
1	198 
1	38 
1	359 
1	168 
1	165 
1	345 
1	137 
1	302 
1	256 
1	347 
1	145 
1	184 
1	0 
1	124 
1	150 
1	259 
1	114 
1	99 
1	300 
1	353 
1	284 
1	158 
1	12 
1	363 
1	123 
1	61 
1	285 
1	156 
1	370 
1	107 
1	4 
1	224 
1	279 
1	335 
1	25 
1	350 
1	97 
1	358 
1	43 
1	181 
1	310 
1	214 
1	52 
1	293 
1	176 
1	39 
1	86 
1	207 
1	204 
1	177 
1	111 
1	276 
1	330 
1	247 
1	303 
1	369 
1	326 
1	202 
1	264 
1	217 
1	49 
1	263 
1	171 
1	305 
1	190 
1	206 
1	197 
1	140 
1	208 
1	213 
1	367 
1	200 
1	272 
1	136 
1	238 
1	366 
1	20 
1	1 
1	306 
1	36 
1	232 
1	231 
1	243 
1	149 
1	220 
1	349 
0	

8
 1 0 0.01 0.99 0 1 0 1
8
 1 0 0 1 0.05 0 0.95 1
8
 1 0 0 1 0.4 0 0.6 1
8
 1 0 0 1 0.2 0 0.8 1
8
 1 0 0 1 0.05 0 0.95 1
2
 0.03 1
8
 1 0 0.9 0.1 0.05 0.95 0.045 0.955
8
 1 0 0 1 0.9 0 0.1 1
8
 1 0 0 1 0.05 0 0.95 1
8
 1 0 0 1 0.05 0 0.95 1
8
 1 0 0 1 0.05 0 0.95 1
8
 1 0 0 1 0.9 0 0.1 1
8
 1 0 0 1 0.05 0 0.95 1
8
 1 0 0 1 0.3 0 0.7 1
8
 1 0 0 1 0.1 0 0.9 1
8
 1 0 0 1 0.9 0 0.1 1
8
 1 0 0 1 0.3 0 0.7 1
8
 1 0 0 1 0.05 0 0.95 1
8
 1 0 0 1 0.3 0 0.7 1
8
 1 0 0 1 0.05 0 0.95 1
8
 1 0 0 1 0.05 0 0.95 1
8
 1 0 0 1 0.05 0 0.95 1
8
 1 0 0 1 0.05 0 0.95 1
8
 1 0 0 1 0.5 0 0.5 1
8
 1 0 0 1 0.3 0 0.7 1
8
 1 0 0 1 0.5 0 0.5 1
8
 1 0 0 1 0.9 0 0.1 1
8
 1 0 0 1 0.05 0 0.95 1
8
 1 0 0 1 0.3 0 0.7 1
8
 1 0 0 1 0.05 0 0.95 1
8
 1 0 0 1 0.05 0 0.95 1
8
 1 0 0 1 0.05 0 0.95 1
8
 1 0 0 1 0.05 0 0.95 1
8
 1 0 0 1 0.5 0 0.5 1
8
 1 0 0 1 0.4 0 0.6 1
8
 1 0 0 1 0.9 0 0.1 1
8
 1 0 0 1 0.5 0 0.5 1
8
 1 0 0 1 0.7 0 0.3 1
8
 1 0 0 1 0.01 0 0.99 1
8
 1 0 0 1 0.9 0 0.1 1
8
 1 0 0 1 0.9 0 0.1 1
8
 1 0 0 1 0.05 0 0.95 1
8
 1 0 0 1 0.4 0 0.6 1
8
 1 0 0 1 0.9 0 0.1 1
8
 1 0 0 1 0.9 0 0.1 1
8
 1 0 0 1 0.75 0 0.25 1
8
 1 0 0 1 0.05 0 0.95 1
8
 1 0 0 1 0.05 0 0.95 1
8
 1 0 0 1 0.3 0 0.7 1
8
 1 0 0 1 0.9 0 0.1 1
8
 1 0 0 1 0.5 0 0.5 1
8
 1 0 0 1 0.9 0 0.1 1
8
 1 0 0 1 0.3 0 0.7 1
8
 1 0 0 1 0.5 0 0.5 1
8
 1 0 0 1 0.05 0 0.95 1
8
 1 0 0 1 0.9 0 0.1 1
8
 1 0 0 1 0.9 0 0.1 1
8
 1 0 0 1 0.9 0 0.1 1
8
 1 0 0 1 0.9 0 0.1 1
8
 1 0 0 1 0.05 0 0.95 1
8
 1 0 0 1 0.05 0 0.95 1
8
 1 0 0 1 0.05 0 0.95 1
8
 1 0 0 1 0.05 0 0.95 1
8
 1 0 0 1 0.05 0 0.95 1
8
 1 0 0 1 0.05 0 0.95 1
8
 1 0 0 1 0.3 0 0.7 1
8
 1 0 0 1 0.05 0 0.95 1
8
 1 0 0 1 0.05 0 0.95 1
8
 1 0 0 1 0.9 0 0.1 1
8
 1 0 0 1 0.3 0 0.7 1
8
 1 0 0 1 0.5 0 0.5 1
8
 1 0 0 1 0.05 0 0.95 1
8
 1 0 0 1 0.1 0 0.9 1
8
 1 0 0 1 0.9 0 0.1 1
8
 1 0 0 1 0.89 0 0.11 1
8
 1 0 0 1 0.05 0 0.95 1
8
 1 0 0 1 0.9 0 0.1 1
8
 1 0 0 1 0.89 0 0.11 1
8
 1 0 0 1 0.05 0 0.95 1
8
 1 0 0 1 0.09 0 0.91 1
8
 1 0 0 1 0.05 0 0.95 1
8
 1 0 0 1 0.02 0 0.98 1
8
 1 0 0 1 0.05 0 0.95 1
8
 1 0 0 1 0.2 0 0.8 1
8
 1 0 0 1 0.05 0 0.95 1
8
 1 0 0 1 0.05 0 0.95 1
8
 1 0 0 1 0.3 0 0.7 1
8
 1 0 0 1 0.05 0 0.95 1
8
 1 0 0 1 0.4 0 0.6 1
8
 1 0 0 1 0.05 0 0.95 1
8
 1 0 0 1 0.05 0 0.95 1
8
 1 0 0 1 0.9 0 0.1 1
8
 1 0 0 1 0.05 0 0.95 1
2
 0.03 1
8
 1 0 0 1 0 1 0 1
8
 1 0 0 1 0 0 1 1
8
 1 0 0 1 0 0 1 1
8
 1 0 0 1 0 0 1 1
8
 1 0 0 1 0 0 1 1
8
 1 0 0 1 0 0 1 1
8
 1 0 0 1 0 0 1 1
8
 1 0 0 1 0 0 1 1
8
 1 0 0 1 0 0 1 1
8
 1 0 0 1 0 0 1 1
8
 1 0 0 1 0 0 1 1
8
 1 0 0 1 0 0 1 1
8
 1 0 0 1 0 0 1 1
8
 1 0 0 1 0 0 1 1
8
 1 0 0 1 0 0 1 1
8
 1 0 0 1 0 0 1 1
8
 1 0 0 1 0 0 1 1
8
 1 0 0 1 0 0 1 1
8
 1 0 0 1 0 0 1 1
8
 1 0 0 1 0 0 1 1
8
 1 0 0 1 0 0 1 1
8
 1 0 0 1 0 0 1 1
8
 1 0 0 1 0 0 1 1
8
 1 0 0 1 0 0 1 1
8
 1 0 0 1 0 0 1 1
8
 1 0 0 1 0 0 1 1
8
 1 0 0 1 0 0 1 1
8
 1 0 0 1 0 0 1 1
8
 1 0 0 1 0 0 1 1
8
 1 0 0 1 0 0 1 1
8
 1 0 0 1 0 0 1 1
8
 1 0 0 1 0 0 1 1
8
 1 0 0 1 0 0 1 1
8
 1 0 0 1 0 0 1 1
8
 1 0 0 1 0 0 1 1
8
 1 0 0 1 0 0 1 1
8
 1 0 0 1 0 0 1 1
8
 1 0 0 1 0 0 1 1
8
 1 0 0 1 0 0 1 1
8
 1 0 0 1 0 0 1 1
8
 1 0 0 1 0 0 1 1
8
 1 0 0 1 0 0 1 1
8
 1 0 0 1 0 0 1 1
8
 1 0 0 1 0 0 1 1
8
 1 0 0 1 0 0 1 1
8
 1 0 0 1 0 0 1 1
8
 1 0 0 1 0 0 1 1
8
 1 0 0 1 0 0 1 1
8
 1 0 0 1 0 0 1 1
8
 1 0 0 1 0 0 1 1
8
 1 0 0 1 0 0 1 1
8
 1 0 0 1 0 0 1 1
8
 1 0 0 1 0 0 1 1
8
 1 0 0 1 0 0 1 1
2
 0.03 1
8
 1 0 0.5 0.5 0.2 0.8 0.1 0.9
8
 1 0 0 1 0.05 0 0.95 1
2
 0.03 1
8
 1 0 0 1 0.9 0.1 0 1
8
 1 0 0 1 0.2 0 0.8 1
8
 1 0 0 1 0.5 0 0.5 1
8
 1 0 0 1 0 0 1 1
8
 1 0 0 1 0.9 0 0.1 1
8
 1 0 0 1 0.5 0 0.5 1
8
 1 0 0 1 0.5 0 0.5 1
8
 1 0 0 1 0 0 1 1
8
 1 0 0 1 0.89 0 0.11 1
8
 1 0 0 1 0.5 0 0.5 1
8
 1 0 0 1 0.2 0 0.8 1
8
 1 0 0 1 0.1 0 0.9 1
8
 1 0 0 1 0.5 0 0.5 1
8
 1 0 0 1 0.5 0 0.5 1
8
 1 0 0 1 0.1 0 0.9 1
8
 1 0 0 1 0 0 1 1
8
 1 0 0 1 0.5 0 0.5 1
8
 1 0 0 1 0.01 0 0.99 1
8
 1 0 0 1 0 0 1 1
8
 1 0 0 1 0 0 1 1
8
 1 0 0 1 0 0 1 1
8
 1 0 0 1 0.9 0 0.1 1
8
 1 0 0 1 0.5 0 0.5 1
8
 1 0 0 1 0 0 1 1
8
 1 0 0 1 0.5 0 0.5 1
8
 1 0 0 1 0.9 0 0.1 1
8
 1 0 0 1 0.5 0 0.5 1
8
 1 0 0 1 0 0 1 1
8
 1 0 0 1 0.1 0 0.9 1
8
 1 0 0 1 0.5 0 0.5 1
8
 1 0 0 1 0.9 0 0.1 1
8
 1 0 0 1 0.5 0 0.5 1
8
 1 0 0 1 0.5 0 0.5 1
8
 1 0 0 1 0.9 0 0.1 1
8
 1 0 0 1 0.09 0 0.91 1
8
 1 0 0 1 0.5 0 0.5 1
8
 1 0 0 1 0.1 0 0.9 1
8
 1 0 0 1 0.5 0 0.5 1
8
 1 0 0 1 0.9 0 0.1 1
8
 1 0 0 1 0.09 0 0.91 1
8
 1 0 0 1 0.5 0 0.5 1
8
 1 0 0 1 0.5 0 0.5 1
8
 1 0 0 1 0 0 1 1
8
 1 0 0 1 0.5 0 0.5 1
8
 1 0 0 1 0 0 1 1
8
 1 0 0 1 0 0 1 1
8
 1 0 0 1 0.5 0 0.5 1
8
 1 0 0 1 0.1 0 0.9 1
8
 1 0 0 1 0.57 0 0.43 1
8
 1 0 0 1 0 0 1 1
8
 1 0 0 1 0 0 1 1
8
 1 0 0 1 0.5 0 0.5 1
8
 1 0 0 1 0.5 0 0.5 1
8
 1 0 0 1 0 0 1 1
8
 1 0 0 1 0.5 0 0.5 1
8
 1 0 0 1 0.1 0 0.9 1
8
 1 0 0 1 0.5 0 0.5 1
8
 1 0 0 1 0.1 0 0.9 1
8
 1 0 0 1 0.5 0 0.5 1
8
 1 0 0 1 0.4 0 0.6 1
8
 1 0 0 1 0.5 0 0.5 1
8
 1 0 0 1 0 0 1 1
8
 1 0 0 1 0.5 0 0.5 1
8
 1 0 0 1 0.9 0 0.1 1
8
 1 0 0 1 0.5 0 0.5 1
8
 1 0 0 1 0.89 0 0.11 1
8
 1 0 0 1 0.5 0 0.5 1
8
 1 0 0 1 0.5 0 0.5 1
8
 1 0 0 1 0.5 0 0.5 1
8
 1 0 0 1 0.5 0 0.5 1
8
 1 0 0 1 0 0 1 1
8
 1 0 0 1 0.1 0 0.9 1
8
 1 0 0 1 0.6 0 0.4 1
8
 1 0 0 1 0.5 0 0.5 1
8
 1 0 0 1 0.1 0 0.9 1
8
 1 0 0 1 0.5 0 0.5 1
8
 1 0 0 1 0 0 1 1
8
 1 0 0 1 0 0 1 1
8
 1 0 0 1 0.1 0 0.9 1
8
 1 0 0 1 0.59 0 0.41 1
8
 1 0 0 1 0 0 1 1
8
 1 0 0 1 0.4 0 0.6 1
8
 1 0 0 1 0 0 1 1
8
 1 0 0 1 0.5 0 0.5 1
8
 1 0 0 1 0.9 0 0.1 1
8
 1 0 0 1 0.5 0 0.5 1
8
 1 0 0 1 0 0 1 1
8
 1 0 0 1 0 0 1 1
8
 1 0 0 1 0.9 0 0.1 1
8
 1 0 0 1 0.6 0 0.4 1
8
 1 0 0 1 0.5 0 0.5 1
8
 1 0 0 1 0.1 0 0.9 1
8
 1 0 0 1 0 0 1 1
8
 1 0 0 1 0.5 0 0.5 1
8
 1 0 0 1 0.09 0 0.91 1
8
 1 0 0 1 0 0 1 1
8
 1 0 0 1 0 0 1 1
8
 1 0 0 1 0 0 1 1
8
 1 0 0 1 0 0 1 1
8
 1 0 0 1 0 0 1 1
8
 1 0 0 1 0.5 0 0.5 1
8
 1 0 0 1 0.5 0 0.5 1
8
 1 0 0 1 0.5 0 0.5 1
8
 1 0 0 1 0.5 0 0.5 1
8
 1 0 0 1 0.5 0 0.5 1
8
 1 0 0 1 0 0 1 1
8
 1 0 0 1 0.5 0 0.5 1
8
 1 0 0 1 0.4 0 0.6 1
8
 1 0 0 1 0.5 0 0.5 1
8
 1 0 0 1 0.7 0 0.3 1
8
 1 0 0 1 0.5 0 0.5 1
8
 1 0 0 1 0.89 0 0.11 1
8
 1 0 0 1 0.5 0 0.5 1
8
 1 0 0 1 0.9 0 0.1 1
8
 1 0 0 1 0 0 1 1
8
 1 0 0 1 0.9 0 0.1 1
8
 1 0 0 1 0.5 0 0.5 1
8
 1 0 0 1 0.5 0 0.5 1
8
 1 0 0 1 0 0 1 1
8
 1 0 0 1 0.75 0 0.25 1
8
 1 0 0 1 0 0 1 1
8
 1 0 0 1 0.09 0 0.91 1
8
 1 0 0 1 0.5 0 0.5 1
8
 1 0 0 1 0.5 0 0.5 1
8
 1 0 0 1 0 0 1 1
8
 1 0 0 1 0.9 0 0.1 1
8
 1 0 0 1 0.7 0 0.3 1
8
 1 0 0 1 0.4 0 0.6 1
8
 1 0 0 1 0.5 0 0.5 1
8
 1 0 0 1 0.1 0 0.9 1
8
 1 0 0 1 0 0 1 1
8
 1 0 0 1 0.6 0 0.4 1
8
 1 0 0 1 0.5 0 0.5 1
8
 1 0 0 1 0.4 0 0.6 1
8
 1 0 0 1 0.9 0 0.1 1
8
 1 0 0 1 0.5 0 0.5 1
8
 1 0 0 1 0.9 0 0.1 1
8
 1 0 0 1 0 0 1 1
8
 1 0 0 1 0 0 1 1
8
 1 0 0 1 0 0 1 1
8
 1 0 0 1 0 0 1 1
8
 1 0 0 1 0.09 0 0.91 1
8
 1 0 0 1 0 0 1 1
8
 1 0 0 1 0.9 0 0.1 1
8
 1 0 0 1 0.5 0 0.5 1
8
 1 0 0 1 0 0 1 1
8
 1 0 0 1 0.9 0 0.1 1
8
 1 0 0 1 0.9 0 0.1 1
8
 1 0 0 1 0 0 1 1
8
 1 0 0 1 0.05 0 0.95 1
8
 1 0 0 1 0.5 0 0.5 1
8
 1 0 0 1 0.5 0 0.5 1
8
 1 0 0 1 0 0 1 1
8
 1 0 0 1 0.5 0 0.5 1
8
 1 0 0 1 0 0 1 1
8
 1 0 0 1 0.1 0 0.9 1
8
 1 0 0 1 0 0 1 1
8
 1 0 0 1 0.5 0 0.5 1
8
 1 0 0 1 0 0 1 1
8
 1 0 0 1 0 0 1 1
8
 1 0 0 1 0.9 0 0.1 1
8
 1 0 0 1 0.01 0 0.99 1
2
 0.03 1
8
 1 0 0.9 0.1 0.9 0.1 0.81 0.19
8
 1 0 0 1 0 0 1 1
8
 1 0 0 1 0.3 0 0.7 1
8
 1 0 0 1 0.05 0 0.95 1
8
 1 0 0 1 0.5 0 0.5 1
8
 1 0 0 1 0.9 0 0.1 1
8
 1 0 0 1 0 0 1 1
8
 1 0 0 1 0.5 0 0.5 1
8
 1 0 0 1 0.89 0 0.11 1
8
 1 0 0 1 0.9 0 0.1 1
8
 1 0 0 1 0.9 0 0.1 1
8
 1 0 0 1 0.9 0 0.1 1
8
 1 0 0 1 0.9 0 0.1 1
8
 1 0 0 1 0.9 0 0.1 1
8
 1 0 0 1 0 0 1 1
8
 1 0 0 1 0 0 1 1
8
 1 0 0 1 0.89 0 0.11 1
8
 1 0 0 1 0.9 0 0.1 1
8
 1 0 0 1 0.9 0 0.1 1
8
 1 0 0 1 0.5 0 0.5 1
8
 1 0 0 1 0.05 0 0.95 1
8
 1 0 0 1 0.89 0 0.11 1
8
 1 0 0 1 0.9 0 0.1 1
8
 1 0 0 1 0.4 0 0.6 1
8
 1 0 0 1 0.9 0 0.1 1
8
 1 0 0 1 0.9 0 0.1 1
8
 1 0 0 1 0.8 0 0.2 1
8
 1 0 0 1 0.9 0 0.1 1
8
 1 0 0 1 0.94 0 0.06 1
8
 1 0 0 1 0.5 0 0.5 1
8
 1 0 0 1 0 0 1 1
8
 1 0 0 1 0.89 0 0.11 1
8
 1 0 0 1 0.3 0 0.7 1
8
 1 0 0 1 0.02 0 0.98 1
8
 1 0 0 1 0.9 0 0.1 1
8
 1 0 0 1 0.9 0 0.1 1
8
 1 0 0 1 0.3 0 0.7 1
8
 1 0 0 1 0.9 0 0.1 1
8
 1 0 0 1 0.9 0 0.1 1
8
 1 0 0 1 0.5 0 0.5 1
8
 1 0 0 1 0.3 0 0.7 1
8
 1 0 0 1 0.09 0 0.91 1
8
 1 0 0 1 0.3 0 0.7 1
8
 1 0 0 1 0.9 0 0.1 1
8
 1 0 0 1 0.9 0 0.1 1
8
 1 0 0 1 0.3 0 0.7 1
8
 1 0 0 1 0.94 0 0.06 1
8
 1 0 0 1 0.9 0 0.1 1
8
 1 0 0 1 0.79 0 0.21 1
8
 1 0 0 1 0.5 0 0.5 1
8
 1 0 0 1 0.5 0 0.5 1
8
 1 0 0 1 0.5 0 0.5 1
8
 1 0 0 1 0.9 0 0.1 1
8
 1 0 0 1 0.01 0 0.99 1
8
 1 0 0 1 0.89 0 0.11 1
8
 1 0 0 1 0.8 0 0.2 1
8
 1 0 0 1 0.3 0 0.7 1
8
 1 0 0 1 0.89 0 0.11 1
8
 1 0 0 1 0.9 0 0.1 1
8
 1 0 0 1 0.9 0 0.1 1
8
 1 0 0 1 0.85 0 0.15 1
8
 1 0 0 1 0.89 0 0.11 1
8
 1 0 0 1 0.89 0 0.11 1
8
 1 0 0 1 0.8 0 0.2 1
8
 1 0 0 1 0.89 0 0.11 1
8
 1 0 0 1 0.3 0 0.7 1
8
 1 0 0 1 0.8 0 0.2 1
8
 1 0 0 1 0.9 0 0.1 1
8
 1 0 0 1 0.9 0 0.1 1
8
 1 0 0 1 0.5 0 0.5 1
8
 1 0 0 1 0.9 0 0.1 1
8
 1 0 0 1 0.8 0 0.2 1
8
 1 0 0 1 0.01 0 0.99 1
8
 1 0 0 1 0.9 0 0.1 1
8
 1 0 0 1 0.9 0 0.1 1
8
 1 0 0 1 0.9 0 0.1 1
8
 1 0 0 1 0.8 0 0.2 1
8
 1 0 0 1 0.7 0 0.3 1
8
 1 0 0 1 0.2 0 0.8 1
8
 1 0 0 1 0.05 0 0.95 1
8
 1 0 0 1 0.8 0 0.2 1
8
 1 0 0 1 0.89 0 0.11 1
8
 1 0 0 1 0.9 0 0.1 1
8
 1 0 0 1 0.3 0 0.7 1
8
 1 0 0 1 0.9 0 0.1 1
8
 1 0 0 1 0.9 0 0.1 1
8
 1 0 0 1 0.5 0 0.5 1
8
 1 0 0 1 0.9 0 0.1 1
8
 1 0 0 1 0.5 0 0.5 1
8
 1 0 0 1 0 0 1 1
8
 1 0 0 1 0.4 0 0.6 1
8
 1 0 0 1 0.9 0 0.1 1
8
 1 0 0 1 0.3 0 0.7 1
8
 1 0 0 1 0.8 0 0.2 1
8
 1 0 0 1 0 0 1 1
8
 1 0 0 1 0.89 0 0.11 1
8
 1 0 0 1 0.3 0 0.7 1
8
 1 0 0 1 0.8 0 0.2 1
8
 1 0 0 1 0.61 0 0.39 1
8
 1 0 0 1 0.86 0 0.14 1
8
 1 0 0 1 0.9 0 0.1 1
8
 1 0 0 1 0.94 0 0.06 1
8
 1 0 0 1 0.3 0 0.7 1
8
 1 0 0 1 0.01 0 0.99 1
8
 1 0 0 1 0.9 0 0.1 1
8
 1 0 0 1 0.9 0 0.1 1
8
 1 0 0 1 0.9 0 0.1 1
8
 1 0 0 1 0.9 0 0.1 1
8
 1 0 0 1 0.5 0 0.5 1
8
 1 0 0 1 0.1 0 0.9 1
8
 1 0 0 1 0.9 0 0.1 1
8
 1 0 0 1 0.9 0 0.1 1
8
 1 0 0 1 0.9 0 0.1 1
8
 1 0 0 1 0.9 0 0.1 1
8
 1 0 0 1 0 0 1 1
8
 1 0 0 1 0.9 0 0.1 1
8
 1 0 0 1 0.5 0 0.5 1
8
 1 0 0 1 0.5 0 0.5 1
8
 1 0 0 1 0.1 0 0.9 1
8
 1 0 0 1 0 0 1 1
8
 1 0 0 1 0 0 1 1
8
 1 0 0 1 0.3 0 0.7 1
8
 1 0 0 1 0.5 0 0.5 1
8
 1 0 0 1 0.2 0 0.8 1
8
 1 0 0 1 0.9 0 0.1 1
8
 1 0 0 1 0.5 0 0.5 1
8
 1 0 0 1 0.89 0 0.11 1
8
 1 0 0 1 0.8 0 0.2 1
8
 1 0 0 1 0.89 0 0.11 1
8
 1 0 0 1 0.89 0 0.11 1
8
 1 0 0 1 0.89 0 0.11 1
8
 1 0 0 1 0.9 0 0.1 1
8
 1 0 0 1 0.5 0 0.5 1
8
 1 0 0 1 0.3 0 0.7 1
8
 1 0 0 1 0.9 0 0.1 1
8
 1 0 0 1 0.8 0 0.2 1
8
 1 0 0 1 0.8 0 0.2 1
8
 1 0 0 1 0.5 0 0.5 1
8
 1 0 0 1 0.8 0 0.2 1
8
 1 0 0 1 0.01 0 0.99 1
8
 1 0 0 1 0.5 0 0.5 1
8
 1 0 0 1 0.9 0 0.1 1
8
 1 0 0 1 0 0 1 1
8
 1 0 0 1 0.3 0 0.7 1
8
 1 0 0 1 0.4 0 0.6 1
8
 1 0 0 1 0.8 0 0.2 1
8
 1 0 0 1 0.9 0 0.1 1
8
 1 0 0 1 0.9 0 0.1 1
8
 1 0 0 1 0.89 0 0.11 1
8
 1 0 0 1 0.2 0 0.8 1
8
 1 0 0 1 0.9 0 0.1 1
8
 1 0 0 1 0.89 0 0.11 1
8
 1 0 0 1 0.94 0 0.06 1
2
 0.03 1
8
 1 0 0.5 0.5 0.9 0.1 0.45 0.55
8
 1 0 0 1 0 0 1 1
8
 1 0 0 1 0.6 0 0.4 1
8
 1 0 0 1 0.5 0 0.5 1
8
 1 0 0 1 0.9 0 0.1 1
8
 1 0 0 1 0.1 0 0.9 1
8
 1 0 0 1 0.8 0 0.2 1
2
 0.03 1
8
 1 0 0.1 0.9 0.5 0.5 0.05 0.95
8
 1 0 0 1 0.5 0 0.5 1
8
 1 0 0 1 0.1 0 0.9 1
8
 1 0 0 1 0.1 0 0.9 1
8
 1 0 0 1 0.1 0 0.9 1
8
 1 0 0 1 0.09 0 0.91 1
8
 1 0 0 1 0.5 0 0.5 1
8
 1 0 0 1 0.01 0 0.99 1
8
 1 0 0 1 0.95 0 0.05 1
8
 1 0 0 1 0.5 0 0.5 1
8
 1 0 0 1 0.19 0 0.81 1
8
 1 0 0 1 0.01 0 0.99 1
8
 1 0 0 1 0.01 0 0.99 1
8
 1 0 0 1 0.09 0 0.91 1
8
 1 0 0 1 0.5 0 0.5 1
8
 1 0 0 1 0.01 0 0.99 1
8
 1 0 0 1 0.1 0 0.9 1
8
 1 0 0 1 0.05 0 0.95 1
8
 1 0 0 1 0.1 0 0.9 1
8
 1 0 0 1 0.19 0 0.81 1
8
 1 0 0 1 0.19 0 0.81 1
8
 1 0 0 1 0.1 0 0.9 1
8
 1 0 0 1 0.05 0 0.95 1
8
 1 0 0 1 0.5 0 0.5 1
8
 1 0 0 1 0.05 0 0.95 1
8
 1 0 0 1 0.01 0 0.99 1
8
 1 0 0 1 0.5 0 0.5 1
8
 1 0 0 1 0.2 0 0.8 1
8
 1 0 0 1 0.1 0 0.9 1
8
 1 0 0 1 0.5 0 0.5 1
8
 1 0 0 1 0.5 0 0.5 1
8
 1 0 0 1 0.95 0 0.05 1
8
 1 0 0 1 0.89 0 0.11 1
8
 1 0 0 1 0.5 0 0.5 1
8
 1 0 0 1 0.5 0 0.5 1
8
 1 0 0 1 0.01 0 0.99 1
8
 1 0 0 1 0.5 0 0.5 1
8
 1 0 0 1 0.2 0 0.8 1
8
 1 0 0 1 0.5 0 0.5 1
8
 1 0 0 1 0.5 0 0.5 1
8
 1 0 0 1 0.09 0 0.91 1
8
 1 0 0 1 0.19 0 0.81 1
8
 1 0 0 1 0.5 0 0.5 1
8
 1 0 0 1 0.09 0 0.91 1
8
 1 0 0 1 0.5 0 0.5 1
8
 1 0 0 1 0.59 0 0.41 1
8
 1 0 0 1 0.5 0 0.5 1
8
 1 0 0 1 0.1 0 0.9 1
8
 1 0 0 1 0.1 0 0.9 1
8
 1 0 0 1 0.01 0 0.99 1
8
 1 0 0 1 0.3 0 0.7 1
8
 1 0 0 1 0 0 1 1
8
 1 0 0 1 0.1 0 0.9 1
8
 1 0 0 1 0.5 0 0.5 1
8
 1 0 0 1 0.5 0 0.5 1
8
 1 0 0 1 0.19 0 0.81 1
8
 1 0 0 1 0.5 0 0.5 1
8
 1 0 0 1 0.19 0 0.81 1
8
 1 0 0 1 0.09 0 0.91 1
8
 1 0 0 1 0.1 0 0.9 1
8
 1 0 0 1 0.5 0 0.5 1
8
 1 0 0 1 0.5 0 0.5 1
8
 1 0 0 1 0.59 0 0.41 1
8
 1 0 0 1 0.05 0 0.95 1
8
 1 0 0 1 0.19 0 0.81 1
8
 1 0 0 1 0.05 0 0.95 1
8
 1 0 0 1 0.2 0 0.8 1
8
 1 0 0 1 0.1 0 0.9 1
8
 1 0 0 1 0.5 0 0.5 1
8
 1 0 0 1 0.5 0 0.5 1
8
 1 0 0 1 0.1 0 0.9 1
2
 0.03 1
8
 1 0 0.2 0.8 0.5 0.5 0.1 0.9
8
 1 0 0 1 0.5 0 0.5 1
8
 1 0 0 1 0.5 0 0.5 1
8
 1 0 0 1 0.01 0 0.99 1
8
 1 0 0 1 0.89 0 0.11 1
8
 1 0 0 1 0.5 0 0.5 1
8
 1 0 0 1 0.5 0 0.5 1
8
 1 0 0 1 0.1 0 0.9 1
8
 1 0 0 1 0.5 0 0.5 1
8
 1 0 0 1 0.89 0 0.11 1
8
 1 0 0 1 0.9 0 0.1 1
8
 1 0 0 1 0.5 0 0.5 1
8
 1 0 0 1 0 0 1 1
8
 1 0 0 1 0.5 0 0.5 1
8
 1 0 0 1 0.01 0 0.99 1
8
 1 0 0 1 0.5 0 0.5 1
8
 1 0 0 1 0.9 0 0.1 1
8
 1 0 0 1 0.01 0 0.99 1
8
 1 0 0 1 0.89 0 0.11 1
8
 1 0 0 1 0.89 0 0.11 1
8
 1 0 0 1 0.5 0 0.5 1
8
 1 0 0 1 0.01 0 0.99 1
8
 1 0 0 1 0.5 0 0.5 1
8
 1 0 0 1 0.01 0 0.99 1
8
 1 0 0 1 0.5 0 0.5 1
8
 1 0 0 1 0.3 0 0.7 1
8
 1 0 0 1 0.5 0 0.5 1
8
 1 0 0 1 0.1 0 0.9 1
8
 1 0 0 1 0.5 0 0.5 1
8
 1 0 0 1 0.09 0 0.91 1
8
 1 0 0 1 0.5 0 0.5 1
8
 1 0 0 1 0.89 0 0.11 1
8
 1 0 0 1 0.5 0 0.5 1
8
 1 0 0 1 0 0 1 1
2
 0.03 1
8
 1 0 0.5 0.5 0.5 0.5 0.25 0.75
8
 1 0 0 1 0.8 0 0.2 1
8
 1 0 0 1 0.9 0 0.1 1
8
 1 0 0 1 0.01 0 0.99 1
8
 1 0 0 1 0.6 0 0.4 1
8
 1 0 0 1 0.4 0 0.6 1
8
 1 0 0 1 0.5 0 0.5 1
8
 1 0 0 1 0.5 0 0.5 1
8
 1 0 0 1 0.1 0 0.9 1
8
 1 0 0 1 0.6 0 0.4 1
8
 1 0 0 1 0.5 0 0.5 1
8
 1 0 0 1 0.1 0 0.9 1
8
 1 0 0 1 0.1 0 0.9 1
8
 1 0 0 1 0.5 0 0.5 1
8
 1 0 0 1 0.6 0 0.4 1
8
 1 0 0 1 0.1 0 0.9 1
8
 1 0 0 1 0.1 0 0.9 1
8
 1 0 0 1 0.1 0 0.9 1
8
 1 0 0 1 0.5 0 0.5 1
8
 1 0 0 1 0.5 0 0.5 1
8
 1 0 0 1 0.75 0 0.25 1
8
 1 0 0 1 0.1 0 0.9 1
8
 1 0 0 1 0.5 0 0.5 1
8
 1 0 0 1 0.5 0 0.5 1
8
 1 0 0 1 0.05 0 0.95 1
8
 1 0 0 1 0.2 0 0.8 1
8
 1 0 0 1 0.5 0 0.5 1
8
 1 0 0 1 0.5 0 0.5 1
8
 1 0 0 1 0.2 0 0.8 1
8
 1 0 0 1 0.1 0 0.9 1
8
 1 0 0 1 0.5 0 0.5 1
8
 1 0 0 1 0.5 0 0.5 1
8
 1 0 0 1 0.05 0 0.95 1
8
 1 0 0 1 0.3 0 0.7 1
8
 1 0 0 1 0.5 0 0.5 1
8
 1 0 0 1 0.01 0 0.99 1
8
 1 0 0 1 0.5 0 0.5 1
8
 1 0 0 1 0.5 0 0.5 1
8
 1 0 0 1 0.5 0 0.5 1
8
 1 0 0 1 0.1 0 0.9 1
2
 0.03 1
2
 0.99995 5e-05
2
 0.99968 0.00032
2
 0.9999 0.0001
2
 0.999995 5e-06
2
 0.9999 0.0001
2
 0.99999 1e-05
2
 0.99975 0.00025
2
 0.99998 2e-05
2
 0.9998 0.0002
2
 0.999993 7e-06
2
 0.9999 0.0001
2
 0.9998 0.0002
2
 1 4e-08
2
 0.99999 1e-05
2
 0.999999 1.4e-06
2
 0.999998 2e-06
2
 0.99995 5e-05
2
 0.9999 0.0001
2
 0.999977 2.342e-05
2
 0.99989 0.00011
2
 0.99998 2e-05
2
 0.9999 0.0001
2
 0.99998 2e-05
2
 0.9999 0.0001
2
 0.99998 2e-05
2
 0.99999 1e-05
2
 0.99995 5e-05
2
 0.99992 8e-05
2
 1 1.1e-07
2
 0.99998 2e-05
2
 0.9996 0.0004
2
 0.99999 1e-05
2
 0.999999 1.26e-06
2
 0.99996 4e-05
2
 0.99998 2e-05
2
 0.9995 0.0005
2
 0.9999 0.0001
2
 0.9999 0.0001
2
 0.9991 0.0009
2
 0.99992 8e-05
2
 0.9995 0.0005
2
 0.9999 0.0001
2
 0.99989 0.00011
2
 0.9996 0.0004
2
 0.99995 5e-05
2
 0.9995 0.0005
2
 0.9999 0.0001
2
 0.999999 1e-06
2
 0.9999 0.0001
2
 0.99999 1e-05
2
 0.995 0.005
2
 0.99995 5e-05
2
 0.9999 0.0001
2
 0.999 0.001
2
 0.99991 9e-05
2
 0.9996 0.0004
2
 0.99998 2e-05
2
 0.99999 1e-05
2
 0.99986 0.00014
2
 0.99982 0.00018
2
 0.9999 0.0001
2
 0.9999 0.0001
2
 0.99999 1e-05
2
 0.99995 5e-05
2
 0.9997 0.0003
2
 0.9991 0.0009
2
 0.99993 7e-05
2
 0.9998 0.0002
2
 0.9998 0.0002
2
 0.99998 2e-05
2
 0.9999 0.0001
2
 0.9999 0.0001
2
 0.9995 0.0005
2
 0.99996 4e-05
2
 0.9997 0.0003
2
 0.99993 7e-05
2
 0.9999 0.0001
2
 0.9999 0.0001
2
 0.99991 9e-05
2
 1 1e-07
2
 0.9999 0.0001
2
 0.999 0.001
2
 1 1e-08
2
 1 4e-08
2
 0.9999 0.0001
2
 0.9999 0.0001
2
 0.9999 0.0001
2
 0.99999 1e-05
2
 0.9999 0.0001
2
 0.999977 2.291e-05
2
 0.9996 0.0004
2
 0.999999 1e-06
2
 0.9991 0.0009
2
 0.99989 0.00011
2
 0.9995 0.0005
2
 1 2e-07
2
 0.998 0.002
2
 0.995 0.005
2
 0.99998 2.003e-05
2
 0.994 0.006
2
 0.9999 0.0001
2
 0.99987 0.00013
2
 0.9997 0.0003
2
 0.9999 0.0001
2
 0.9995 0.0005
2
 0.99995 5e-05
2
 0.99995 5e-05
2
 0.997 0.003
2
 1 2.8e-07
2
 0.999 0.001
2
 0.999991 8.59e-06
2
 0.99995 5e-05
2
 0.99992 8e-05
2
 0.997 0.003
2
 0.999999 1e-06
2
 0.99995 5e-05
2
 0.9999 0.0001
2
 0.9999 0.0001
2
 0.999996 4e-06
2
 0.9995 0.0005
2
 0.9999 0.0001
2
 1 1.6e-07
2
 0.99999 1e-05
2
 0.9999 0.0001
2
 0.9999 0.0001
2
 0.9999 0.0001
2
 0.9999 0.0001
2
 0.99989 0.00011
2
 0.999969 3.12e-05
2
 0.999999 1e-06
2
 0.9992 0.0008
2
 0.9999 0.0001
2
 0.9999 0.0001
2
 1 1e-08
2
 0.99999 1e-05
2
 0.9995 0.0005
2
 1 1.4e-07
2
 0.9998 0.0002
2
 0.999953 4.733e-05
2
 0.99998 2e-05
2
 0.9999 0.0001
2
 0.9999 0.0001
2
 0.9999 0.0001
2
 0.9995 0.0005
2
 0.99995 5e-05
2
 0.99994 6e-05
2
 0.99991 9e-05
2
 0.99991 9e-05
2
 0.9999 0.0001
2
 0.9999 0.0001
2
 0.99995 5e-05
2
 1 2.9e-07
2
 1 6e-08
2
 0.9999 0.0001
2
 0.99994 6e-05
2
 0.998 0.002
2
 0.9998 0.0002
2
 0.9979 0.0021
2
 0.999994 6e-06
2
 0.9999 0.0001
2
 0.9998 0.0002
2
 0.99999 1e-05
2
 0.99997 3e-05
2
 0.99997 3e-05
2
 0.99995 5e-05
2
 0.999999 1e-06
2
 1 1e-08
2
 0.99998 2e-05
2
 0.997 0.003
2
 0.9999 0.0001
2
 0.9999 0.0001
2
 0.999999 1e-06
2
 0.99995 5e-05
2
 0.9999 0.0001
2
 1 1e-08
2
 0.9999 0.0001
2
 0.99997 3e-05
2
 0.99998 2e-05
2
 1 1e-07
2
 1 1e-07
2
 0.9999 0.0001
2
 0.99997 3e-05
2
 0.99999 1e-05
2
 0.99996 4e-05
2
 0.9999 0.0001
2
 0.999585 0.000415
2
 0.9999 0.0001
2
 0.9995 0.0005
2
 0.9998 0.0002
2
 0.9999 0.0001
2
 0.999 0.001
2
 0.9999 0.0001
2
 0.99993 7e-05
2
 0.9995 0.0005
2
 0.99995 5e-05
2
 0.99997 3e-05
2
 0.9999 0.0001
2
 0.999999 8.1e-07
2
 0.9986 0.0014
2
 0.99 0.01
2
 0.99999 1e-05
2
 0.9981 0.0019
2
 0.9999 0.0001
2
 0.9999 0.0001
2
 0.99991 9e-05
2
 0.9999 0.0001
2
 0.99989 0.00011
2
 0.9999 0.0001
2
 0.99975 0.00025
2
 0.9995 0.0005
2
 0.9999 0.0001
2
 0.999999 1e-06
2
 0.9999 0.0001
2
 0.9996 0.0004
2
 0.9999 0.0001
2
 0.99994 6e-05
2
 0.9999 0.0001
2
 0.9999 0.0001
2
 0.9998 0.0002
2
 0.99999 1e-05
2
 0.9999 0.0001
2
 0.998 0.002
2
 0.999998 2e-06
2
 0.9999 0.0001
2
 0.999999 1e-06
2
 0.99989 0.00011
2
 0.99995 5e-05
2
 0.9999 0.0001
2
 0.99996 4e-05
2
 0.99982 0.00018
2
 0.99981 0.00019
2
 0.9999 0.0001
2
 0.9999 0.0001
2
 1 1e-08
2
 1 1.7e-07
2
 0.9999 0.0001
2
 1 1.1e-07
2
 0.99997 3e-05
2
 0.99999 1e-05
2
 0.9999 0.0001
2
 0.99989 0.00011
2
 0.9999 0.0001
2
 0.9995 0.0005
2
 0.99975 0.00025
2
 1 6e-08
2
 0.99996 4e-05
2
 0.9999 0.0001
2
 0.999973 2.7e-05
2
 0.99991 9e-05
2
 0.99995 5e-05
2
 0.99999 1e-05
2
 0.9999 0.0001
2
 0.9999 0.0001
2
 0.99982 0.00018
2
 0.9999 0.0001
2
 0.9999 0.0001
2
 1 1e-08
2
 0.9999 0.0001
2
 0.99998 2e-05
2
 0.9999 0.0001
2
 0.9995 0.0005
2
 0.99999 1e-05
2
 0.999997 2.88e-06
2
 0.9995 0.0005
2
 0.9994 0.0006
2
 0.99922 0.00078
2
 0.9998 0.0002
2
 0.99995 5e-05
2
 0.9998 0.0002
2
 0.9999 0.0001
2
 1 5e-07
2
 0.99994 6e-05
2
 0.9994 0.0006
2
 0.99995 5e-05
2
 0.99999 1e-05
2
 0.9999 0.0001
2
 0.9995 0.0005
2
 0.99999 1e-05
2
 0.9999 0.0001
2
 0.9998 0.0002
2
 0.9995 0.0005
2
 0.99984 0.00016
2
 0.999 0.001
2
 0.9996 0.0004
2
 0.9999 0.0001
2
 0.99997 3e-05
2
 0.999 0.001
2
 0.9996 0.0004
2
 0.99996 4e-05
2
 1 4e-08
2
 0.9999 0.0001
2
 0.99998 2e-05
2
 0.99995 5e-05
2
 0.9965 0.0035
2
 0.9999 0.0001
2
 0.9928 0.0072
2
 0.9999 0.0001
2
 0.99985 0.00015
2
 0.99996 4e-05
2
 0.9999 0.0001
2
 0.9995 0.0005
2
 0.9985 0.0015
2
 0.99995 5e-05
2
 1 1e-08
2
 0.999784 0.000216
2
 0.9988 0.0012
2
 0.99995 5e-05
2
 0.9995 0.0005
2
 0.999999 6.2e-07
2
 0.99995 5e-05
2
 0.9999 0.0001
2
 0.99998 2e-05
2
 0.99974 0.00026
2
 1 1.2e-07
2
 0.99998 2e-05
2
 0.9995 0.0005
2
 0.9996 0.0004
2
 0.9997 0.0003
2
 0.999997 2.82e-06
2
 0.99998 2e-05
2
 0.99999 1e-05
2
 0.9999 0.0001
2
 0.9995 0.0005
2
 0.9999 0.0001
2
 1 2e-08
2
 0.9994 0.0006
2
 0.9999 0.0001
2
 0.999907 9.332e-05
2
 0.9994 0.0006
2
 0.9999 0.0001
2
 0.999999 5.4e-07
2
 0.9999 0.0001
2
 0.99997 3e-05
2
 0.999999 1e-06
2
 0.99995 5e-05
2
 0.999992 8e-06
2
 0.99975 0.00025
2
 0.9999 0.0001
2
 0.99999 1e-05
2
 0.9999 0.0001
2
 0.9999 0.0001
2
 0.99999 1e-05
2
 0.9995 0.0005
2
 0.999 0.001
2
 0.99999 1e-05
2
 0.99997 3e-05
2
 0.9985 0.0015
2
 0.9999 0.0001
2
 0.99995 5e-05
2
 0.9995 0.0005
2
 0.9999 0.0001
2
 0.99998 2e-05
2
 0.9999 0.0001
2
 0.99997 3e-05
2
 0.9996 0.0004
2
 0.99994 6e-05
2
 0.99999 1e-05
2
 0.9995 0.0005
2
 0.9999 0.0001
2
 0.9975 0.0025
2
 0.9999 0.0001
2
 0.9995 0.0005
2
 0.99989 0.00011
2
 0.9999 0.0001
2
 0.99997 3e-05
2
 0.9995 0.0005
2
 0.9999 0.0001
2
 0.9994 0.0006
2
 0.99997 3e-05
2
 0.99998 2e-05
2
 0.9999 0.0001
2
 0.99996 4e-05
2
 1 5e-07
1
 1

